data/solutions/recovery/wellformed/intermediate/binding/wellformed_intermediate_instance41/37.sol
Elapsed time: 100.22
Upper bound: 263161.0
Planning weighted value: 1021096986.0
C[0]=263161.0
C[1]=263145.0
C[2]=263131.0
C[3]=263129.0
C[4]=263101.0
C[5]=263074.0
C[6]=263062.0
C[7]=263034.0
C[8]=263024.0
C[9]=262935.0
C[10]=262573.0
C[11]=0.0
y[0]=3
y[1]=1
y[2]=6
y[3]=9
y[4]=2
y[5]=2
y[6]=9
y[7]=1
y[8]=10
y[9]=4
y[10]=1
y[11]=7
y[12]=1
y[13]=2
y[14]=8
y[15]=9
y[16]=4
y[17]=1
y[18]=6
y[19]=2
y[20]=5
y[21]=7
y[22]=5
y[23]=10
y[24]=5
y[25]=4
y[26]=8
y[27]=6
y[28]=8
y[29]=6
y[30]=8
y[31]=6
y[32]=8
y[33]=3
y[34]=0
y[35]=3
y[36]=6
y[37]=3
y[38]=6
y[39]=6
y[40]=0
y[41]=7
y[42]=9
y[43]=9
y[44]=4
y[45]=3
y[46]=7
y[47]=1
y[48]=2
y[49]=0
y[50]=1
y[51]=5
y[52]=7
y[53]=8
y[54]=1
y[55]=4
y[56]=6
y[57]=7
y[58]=2
y[59]=9
y[60]=10
y[61]=4
y[62]=1
y[63]=5
y[64]=7
y[65]=0
y[66]=0
y[67]=9
y[68]=1
y[69]=8
y[70]=0
y[71]=8
y[72]=9
y[73]=8
y[74]=0
y[75]=0
y[76]=5
y[77]=2
y[78]=0
y[79]=1
y[80]=3
y[81]=4
y[82]=9
y[83]=2
y[84]=0
y[85]=2
y[86]=10
y[87]=6
y[88]=1
y[89]=9
y[90]=7
y[91]=10
y[92]=7
y[93]=0
y[94]=0
y[95]=7
y[96]=10
y[97]=3
y[98]=4
y[99]=4
y[100]=8
y[101]=1
y[102]=9
y[103]=4
y[104]=1
y[105]=0
y[106]=1
y[107]=8
y[108]=8
y[109]=4
y[110]=7
y[111]=6
y[112]=2
y[113]=1
y[114]=8
y[115]=3
y[116]=1
y[117]=9
y[118]=2
y[119]=4
y[120]=7
y[121]=7
y[122]=10
y[123]=1
y[124]=5
y[125]=1
y[126]=7
y[127]=4
y[128]=3
y[129]=5
y[130]=10
y[131]=4
y[132]=9
y[133]=2
y[134]=7
y[135]=5
y[136]=10
y[137]=9
y[138]=1
y[139]=8
y[140]=0
y[141]=5
y[142]=8
y[143]=5
y[144]=2
y[145]=2
y[146]=5
y[147]=6
y[148]=1
y[149]=3
y[150]=1
y[151]=1
y[152]=0
y[153]=9
y[154]=3
y[155]=1
y[156]=0
y[157]=10
y[158]=10
y[159]=6
y[160]=1
y[161]=0
y[162]=8
y[163]=1
y[164]=6
y[165]=7
y[166]=1
y[167]=0
y[168]=0
y[169]=5
y[170]=2
y[171]=6
y[172]=1
y[173]=9
y[174]=7
y[175]=10
y[176]=0
y[177]=2
y[178]=4
y[179]=5
y[180]=1
y[181]=7
y[182]=2
y[183]=5
y[184]=6
y[185]=3
y[186]=5
y[187]=7
y[188]=7
y[189]=1
y[190]=5
y[191]=5
y[192]=8
y[193]=7
y[194]=6
y[195]=4
y[196]=7
y[197]=5
y[198]=6
y[199]=7
y[200]=8
y[201]=7
y[202]=5
y[203]=7
y[204]=6
y[205]=5
y[206]=6
y[207]=1
y[208]=5
y[209]=4
y[210]=0
y[211]=3
y[212]=3
y[213]=0
y[214]=8
y[215]=5
y[216]=1
y[217]=10
y[218]=5
y[219]=10
y[220]=6
y[221]=4
y[222]=10
y[223]=4
y[224]=10
y[225]=10
y[226]=7
y[227]=8
y[228]=1
y[229]=3
y[230]=3
y[231]=10
y[232]=0
y[233]=10
y[234]=6
y[235]=8
y[236]=8
y[237]=6
y[238]=1
y[239]=5
y[240]=4
y[241]=7
y[242]=5
y[243]=9
y[244]=5
y[245]=5
y[246]=8
y[247]=5
y[248]=2
y[249]=7
y[250]=10
y[251]=10
y[252]=4
y[253]=0
y[254]=10
y[255]=10
y[256]=3
y[257]=1
y[258]=10
y[259]=3
y[260]=3
y[261]=0
y[262]=10
y[263]=5
y[264]=4
y[265]=9
y[266]=10
y[267]=3
y[268]=0
y[269]=9
y[270]=2
y[271]=3
y[272]=8
y[273]=9
y[274]=7
y[275]=3
y[276]=2
y[277]=8
y[278]=3
y[279]=3
y[280]=9
y[281]=5
y[282]=4
y[283]=6
y[284]=10
y[285]=8
y[286]=4
y[287]=7
y[288]=0
y[289]=1
y[290]=6
y[291]=8
y[292]=9
y[293]=4
y[294]=10
y[295]=1
y[296]=2
y[297]=8
y[298]=3
y[299]=7
y[300]=10
y[301]=1
y[302]=2
y[303]=1
y[304]=3
y[305]=6
y[306]=5
y[307]=7
y[308]=8
y[309]=8
y[310]=2
y[311]=5
