data/solutions/recovery/wellformed/intermediate/binding/wellformed_intermediate_instance41/37.log

Log started (V12.6.3.0) Fri Apr 20 18:56:53 2018

New value for default parallel thread count: 1

Problem '/tmp/tmpKlzMJK.pyomo.lp' read.
Read time = 0.14 sec. (12.97 ticks)

Problem name         : /tmp/tmpKlzMJK.pyomo.lp
Objective sense      : Minimize
Variables            :    3758  [Nneg: 1,  Binary: 3744,  General Integer: 13]
Objective nonzeros   :       1
Linear constraints   :     650  [Less: 324,  Equal: 326]
  Nonzeros           :  961693
  RHS nonzeros       :     313

Variables            : Min LB: 0.000000         Max UB: 1.000000       
Objective nonzeros   : Min   : 1.000000         Max   : 1.000000       
Linear constraints   :
  Nonzeros           : Min   : 1.000000         Max   : 19298.00       
  RHS nonzeros       : Min   : 1.000000         Max   : 1.000000       
Tried aggregator 2 times.
MIP Presolve eliminated 594 rows and 3372 columns.
Aggregator did 11 substitutions.
Reduced MIP has 45 rows, 375 columns, and 759 nonzeros.
Reduced MIP has 374 binaries, 1 generals, 0 SOSs, and 0 indicators.
Presolve time = 0.04 sec. (52.72 ticks)
Found incumbent of value 639906.000000 after 0.07 sec. (75.08 ticks)
Probing time = 0.00 sec. (0.40 ticks)
Tried aggregator 1 time.
Reduced MIP has 45 rows, 375 columns, and 759 nonzeros.
Reduced MIP has 374 binaries, 1 generals, 0 SOSs, and 0 indicators.
Presolve time = 0.00 sec. (0.63 ticks)
Probing time = 0.00 sec. (0.40 ticks)
Clique table members: 34.
MIP emphasis: balance optimality and feasibility.
MIP search method: dynamic search.
Parallel mode: none, using 1 thread.
Root relaxation solution time = 0.00 sec. (0.71 ticks)

        Nodes                                         Cuts/
   Node  Left     Objective  IInf  Best Integer    Best Bound    ItCnt     Gap

*     0+    0                       639906.0000   251273.0000            60.73%
      0     0   263033.5455    20   639906.0000   263033.5455       74   58.89%
*     0+    0                       280695.0000   263033.5455             6.29%
      0     0   263034.0000    20   280695.0000       Cuts: 5       91    6.29%
*     0+    0                       272795.0000   263034.0000             3.58%
      0     0   263034.0000    27   272795.0000      Cuts: 20      145    3.58%
*     0+    0                       269524.0000   263034.0000             2.41%
*     0+    0                       269026.0000   263034.0000             2.23%
*     0+    0                       268003.0000   263034.0000             1.85%
*     0+    0                       267744.0000   263034.0000             1.76%
      0     2   263034.0000    16   267744.0000   263034.0000      145    1.76%
Elapsed time = 0.09 sec. (94.61 ticks, tree = 0.01 MB, solutions = 7)
*    20+   18                       266218.0000   263034.0000             1.20%
*    50+   45                       265382.0000   263034.0000             0.88%
*    60+   55                       265347.0000   263034.0000             0.87%
*    90+   85                       265310.0000   263034.0000             0.86%
*   110+  100                       264982.0000   263034.0000             0.74%
*   170+  151                       264976.0000   263034.0000             0.73%
*   220+  199                       264919.0000   263034.0000             0.71%
*   270+  226                       264715.0000   263034.0000             0.64%
*   290+  246                       264704.0000   263034.0000             0.63%
*   330+  283                       264401.0000   263034.0000             0.52%
*   430+  377                       264300.0000   263034.0000             0.48%
*   430+  371                       264137.0000   263034.0000             0.42%
*   541+  471                       264013.0000   263034.0000             0.37%
*   542+  471                       263963.0000   263034.0000             0.35%
*   544+  315                       263819.0000   263034.0000             0.30%
*   843+  331                       263682.0000   263034.0000             0.25%
*   843+  289                       263646.0000   263034.0000             0.23%
    843   289   263633.0000    13   263646.0000   263034.0000     3713    0.23%
    844   289   263633.0000    13   263646.0000   263034.0000     3713    0.23%
    845   287        cutoff         263646.0000   263034.0000     3718    0.23%
    846   287   263633.0000    14   263646.0000   263034.0000     3720    0.23%
    847   287   263633.0000    14   263646.0000   263034.0000     3721    0.23%
    848   288   263633.0000    14   263646.0000   263034.0000     3722    0.23%
    849   286        cutoff         263646.0000   263034.0000     3724    0.23%
    850   286   263633.0000    14   263646.0000   263034.0000     3727    0.23%
    851   285   263633.0000    14   263646.0000   263034.0000     3733    0.23%
*   943+  276                       263580.0000   263034.0000             0.21%
*  1043+  339                       263542.0000   263034.0000             0.19%
*  1243+  464                       263508.0000   263034.0000             0.18%
*  1243+  455                       263426.0000   263034.0000             0.15%
*  1243+  402                       263392.0000   263034.0000             0.14%
*  1443+  508                       263359.0000   263034.0000             0.12%
   1443   507   263372.5000    16   263359.0000   263034.0000     5697    0.12%
Elapsed time = 1.04 sec. (1090.17 ticks, tree = 0.20 MB, solutions = 30)
*  1643+  638                       263335.0000   263034.0000             0.11%
  14805 11798   263161.0000    15   263335.0000   263034.0000    37189    0.11%
  14806 11799   263161.0000    12   263335.0000   263034.0000    37195    0.11%
  14807 11800   263161.0000    12   263335.0000   263034.0000    37196    0.11%
  14808 11801   263161.0000    11   263335.0000   263034.0000    37200    0.11%
  14809 11802   263161.0000    12   263335.0000   263034.0000    37201    0.11%
  14810 11803   263161.0000    10   263335.0000   263034.0000    37202    0.11%
  14811 11804   263161.0000     8   263335.0000   263034.0000    37203    0.11%
  14812 11805   263161.0000     9   263335.0000   263034.0000    37205    0.11%
  14813 11806   263161.0000     8   263335.0000   263034.0000    37206    0.11%
  14814 11807   263161.0000     8   263335.0000   263034.0000    37207    0.11%
Elapsed time = 1.96 sec. (2044.31 ticks, tree = 4.22 MB, solutions = 31)
  31279 25829   263303.0000    12   263335.0000   263034.0000    75789    0.11%
  31280 25830   263303.0000    10   263335.0000   263034.0000    75791    0.11%
  31281 25831   263303.0000    11   263335.0000   263034.0000    75794    0.11%
  31282 25832   263303.0000    13   263335.0000   263034.0000    75796    0.11%
  31283 25833   263303.0000    12   263335.0000   263034.0000    75798    0.11%
  31284 25834   263323.4286    12   263335.0000   263034.0000    75800    0.11%
  31285 25833        cutoff         263335.0000   263034.0000    75802    0.11%
  31286 25833   263323.4286    11   263335.0000   263034.0000    75804    0.11%
  31287 25832        cutoff         263335.0000   263034.0000    75806    0.11%
  31288 25833   263323.7000    16   263335.0000   263034.0000    75813    0.11%
Elapsed time = 2.86 sec. (2998.60 ticks, tree = 9.18 MB, solutions = 31)
* 35861 21587      integral     0   263288.0000   263034.0000    86221    0.10%
  47111 30455   263161.0000    12   263288.0000   263034.0000   111558    0.10%
  47112 30456   263161.0000    12   263288.0000   263034.0000   111560    0.10%
  47113 30457   263161.0000    11   263288.0000   263034.0000   111564    0.10%
  47114 30457   263161.0000    13   263288.0000   263034.0000   111566    0.10%
  47115 30458   263161.0000    11   263288.0000   263034.0000   111567    0.10%
  47116 30459   263161.0000    11   263288.0000   263034.0000   111572    0.10%
  47117 30460   263161.0000    11   263288.0000   263034.0000   111573    0.10%
  47118 30461   263161.0000    11   263288.0000   263034.0000   111574    0.10%
  47119 30462   263161.0000    12   263288.0000   263034.0000   111576    0.10%
  47120 30463   263161.0000    11   263288.0000   263034.0000   111578    0.10%
Elapsed time = 3.77 sec. (3952.78 ticks, tree = 10.62 MB, solutions = 32)
  64130 44808   263181.8571    14   263288.0000   263034.0000   148031    0.10%
  64131 44809   263181.8571    13   263288.0000   263034.0000   148032    0.10%
  64132 44808        cutoff         263288.0000   263034.0000   148035    0.10%
  64133 44809   263181.8571    14   263288.0000   263034.0000   148037    0.10%
  64134 44808        cutoff         263288.0000   263034.0000   148038    0.10%
  64135 44807    infeasible         263288.0000   263034.0000   148038    0.10%
  64136 44808   263145.1000    17   263288.0000   263034.0000   148041    0.10%
  64137 44809   263145.1000    17   263288.0000   263034.0000   148042    0.10%
  64138 44810   263153.5556    15   263288.0000   263034.0000   148044    0.10%
  64139 44811   263153.5556    14   263288.0000   263034.0000   148045    0.10%
Elapsed time = 4.67 sec. (4906.92 ticks, tree = 16.09 MB, solutions = 32)
  80961 58686   263248.8571    13   263288.0000   263034.0000   183877    0.10%
  80962 58687   263248.8571    14   263288.0000   263034.0000   183880    0.10%
  80963 58687   263248.8571    15   263288.0000   263034.0000   183885    0.10%
  80964 58686        cutoff         263288.0000   263034.0000   183887    0.10%
  80965 58687   263251.4000    18   263288.0000   263034.0000   183892    0.10%
  80966 58688   263251.4000    18   263288.0000   263034.0000   183893    0.10%
  80967 58689   263251.4000    18   263288.0000   263034.0000   183895    0.10%
  80968 58690   263251.4000    18   263288.0000   263034.0000   183898    0.10%
  80969 58691   263251.4000    18   263288.0000   263034.0000   183903    0.10%
  80970 58692   263251.4000    20   263288.0000   263034.0000   183905    0.10%
Elapsed time = 5.57 sec. (5861.87 ticks, tree = 20.55 MB, solutions = 32)
  96890 71470   263187.0000    11   263288.0000   263034.0000   218864    0.10%
  96891 71471   263187.0000    12   263288.0000   263034.0000   218870    0.10%
  96892 71472   263187.0000    12   263288.0000   263034.0000   218873    0.10%
  96893 71473   263187.0000    11   263288.0000   263034.0000   218876    0.10%
  96894 71474   263187.0000    11   263288.0000   263034.0000   218877    0.10%
  96895 71475   263187.0000    11   263288.0000   263034.0000   218878    0.10%
  96896 71476   263187.0000    11   263288.0000   263034.0000   218882    0.10%
  96897 71477   263187.0000    12   263288.0000   263034.0000   218884    0.10%
  96898 71478   263187.0000    12   263288.0000   263034.0000   218885    0.10%
  96899 71479   263187.0000    12   263288.0000   263034.0000   218886    0.10%
Elapsed time = 6.48 sec. (6815.97 ticks, tree = 26.60 MB, solutions = 32)
 112934 84209   263034.0000    19   263288.0000   263034.0000   255747    0.10%
 112935 84208        cutoff         263288.0000   263034.0000   255753    0.10%
 112936 84207        cutoff         263288.0000   263034.0000   255757    0.10%
 112937 84208   263034.0000    18   263288.0000   263034.0000   255759    0.10%
 112938 84209   263034.0000    20   263288.0000   263034.0000   255767    0.10%
 112939 84210   263034.0000    19   263288.0000   263034.0000   255769    0.10%
 112940 84211   263034.0000    20   263288.0000   263034.0000   255770    0.10%
 112941 84212   263034.0000    20   263288.0000   263034.0000   255771    0.10%
 112942 84213   263034.0000    20   263288.0000   263034.0000   255772    0.10%
 112943 84214   263034.0000    20   263288.0000   263034.0000   255776    0.10%
Elapsed time = 7.40 sec. (7770.72 ticks, tree = 30.72 MB, solutions = 32)
 128191 95730   263165.8571    14   263288.0000   263034.0000   292016    0.10%
 128192 95731   263165.8571    14   263288.0000   263034.0000   292017    0.10%
 128193 95732   263165.8571    15   263288.0000   263034.0000   292020    0.10%
 128194 95733   263165.8571    15   263288.0000   263034.0000   292021    0.10%
 128195 95733   263165.8571    15   263288.0000   263034.0000   292022    0.10%
 128196 95732        cutoff         263288.0000   263034.0000   292024    0.10%
 128197 95733   263104.5000    17   263288.0000   263034.0000   292035    0.10%
 128198 95734   263104.5000    18   263288.0000   263034.0000   292037    0.10%
 128199 95735   263104.5000    17   263288.0000   263034.0000   292041    0.10%
 128200 95736   263104.5000    19   263288.0000   263034.0000   292044    0.10%
Elapsed time = 8.33 sec. (8725.30 ticks, tree = 34.50 MB, solutions = 32)
 143484 107813   263104.7778    19   263288.0000   263034.0000   326759    0.10%
 143485 107814   263104.7778    18   263288.0000   263034.0000   326761    0.10%
 143486 107815   263104.7778    18   263288.0000   263034.0000   326762    0.10%
 143487 107816   263104.7778    18   263288.0000   263034.0000   326763    0.10%
 143488 107817   263104.7778    17   263288.0000   263034.0000   326765    0.10%
 143489 107818   263104.7778    18   263288.0000   263034.0000   326767    0.10%
 143490 107819   263104.7778    18   263288.0000   263034.0000   326768    0.10%
 143491 107820   263104.7778    18   263288.0000   263034.0000   326770    0.10%
 143492 107821   263104.7778    18   263288.0000   263034.0000   326772    0.10%
 188745 144113   263229.0000     8   263288.0000   263034.0000   428712    0.10%
Elapsed time = 11.99 sec. (12540.01 ticks, tree = 51.77 MB, solutions = 32)
 244151 186216        cutoff         263288.0000   263034.0000   555650    0.10%
 244152 186215        cutoff         263288.0000   263034.0000   555651    0.10%
 244153 186214    infeasible         263288.0000   263034.0000   555651    0.10%
 244154 186213        cutoff         263288.0000   263034.0000   555662    0.10%
 244155 186212        cutoff         263288.0000   263034.0000   555665    0.10%
 244156 186211    infeasible         263288.0000   263034.0000   555665    0.10%
 244157 186212   263034.0000    18   263288.0000   263034.0000   555674    0.10%
 244158 186213   263034.0000    18   263288.0000   263034.0000   555675    0.10%
 244159 186214   263034.0000    17   263288.0000   263034.0000   555683    0.10%
 244160 186215   263078.0000    16   263288.0000   263034.0000   555691    0.10%
Elapsed time = 15.69 sec. (16355.81 ticks, tree = 66.47 MB, solutions = 32)
*280143+184018                       263247.0000   263034.0000             0.08%
*285101 160170      integral     0   263221.0000   263034.0000   649274    0.07%
 300268 171061   263145.1111    15   263221.0000   263034.0000   684783    0.07%
 300269 171062   263145.1111    17   263221.0000   263034.0000   684788    0.07%
 300270 171063   263145.1111    15   263221.0000   263034.0000   684793    0.07%
 300271 171062        cutoff         263221.0000   263034.0000   684795    0.07%
 300272 171061        cutoff         263221.0000   263034.0000   684796    0.07%
 300273 171062   263034.0000    18   263221.0000   263034.0000   684799    0.07%
 300274 171063   263034.0000    18   263221.0000   263034.0000   684800    0.07%
 300275 171064   263034.0000    18   263221.0000   263034.0000   684801    0.07%
 300276 171065   263034.0000    18   263221.0000   263034.0000   684802    0.07%
 300277 171066   263034.0000    18   263221.0000   263034.0000   684804    0.07%
Elapsed time = 19.46 sec. (20170.98 ticks, tree = 62.70 MB, solutions = 34)
 360843 217488   263039.8889    16   263221.0000   263034.0000   829173    0.07%
 360844 217489   263039.8889    16   263221.0000   263034.0000   829174    0.07%
 360845 217490   263039.8889    17   263221.0000   263034.0000   829177    0.07%
 360846 217491   263039.8889    17   263221.0000   263034.0000   829178    0.07%
 360847 217492   263039.8889    16   263221.0000   263034.0000   829180    0.07%
 360848 217493   263039.8889    17   263221.0000   263034.0000   829182    0.07%
 360849 217494   263039.8889    16   263221.0000   263034.0000   829185    0.07%
 360850 217495   263039.8889    17   263221.0000   263034.0000   829187    0.07%
 360851 217496   263039.8889    17   263221.0000   263034.0000   829188    0.07%
 360852 217497   263039.8889    17   263221.0000   263034.0000   829189    0.07%
Elapsed time = 23.16 sec. (23986.22 ticks, tree = 77.88 MB, solutions = 34)
 417507 260564   263143.5556    15   263221.0000   263034.0000   964804    0.07%
 417508 260565   263143.5556    16   263221.0000   263034.0000   964806    0.07%
 417509 260566   263143.5556    16   263221.0000   263034.0000   964807    0.07%
 417510 260567   263143.5556    16   263221.0000   263034.0000   964808    0.07%
 417511 260568   263143.5556    15   263221.0000   263034.0000   964812    0.07%
 417512 260569   263143.5556    16   263221.0000   263034.0000   964813    0.07%
 417513 260570   263143.5556    15   263221.0000   263034.0000   964817    0.07%
 417514 260571   263143.5556    16   263221.0000   263034.0000   964818    0.07%
 417515 260572   263143.5556    16   263221.0000   263034.0000   964822    0.07%
 417516 260573   263143.5556    17   263221.0000   263034.0000   964825    0.07%
Elapsed time = 26.86 sec. (27801.44 ticks, tree = 93.52 MB, solutions = 34)
 478868 309069   263069.0000    16   263221.0000   263034.0000  1106800    0.07%
 478869 309070   263069.0000    16   263221.0000   263034.0000  1106801    0.07%
 478870 309071   263069.0000    16   263221.0000   263034.0000  1106805    0.07%
 478871 309072   263127.0000    14   263221.0000   263034.0000  1106807    0.07%
 478872 309073   263130.4286    13   263221.0000   263034.0000  1106808    0.07%
 478873 309074   263130.4286    13   263221.0000   263034.0000  1106810    0.07%
 478874 309075   263130.4286    13   263221.0000   263034.0000  1106814    0.07%
 478875 309076   263130.4286    13   263221.0000   263034.0000  1106815    0.07%
 478876 309077   263130.4286    13   263221.0000   263034.0000  1106816    0.07%
 478877 309078   263130.4286    13   263221.0000   263034.0000  1106817    0.07%
Elapsed time = 30.52 sec. (31616.68 ticks, tree = 111.22 MB, solutions = 34)
 531761 347524        cutoff         263221.0000   263034.0000  1231226    0.07%
 531762 347525   263207.4000     7   263221.0000   263034.0000  1231230    0.07%
 531763 347524        cutoff         263221.0000   263034.0000  1231232    0.07%
 531764 347523        cutoff         263221.0000   263034.0000  1231233    0.07%
 531765 347524   263103.0000    15   263221.0000   263034.0000  1231237    0.07%
 531766 347525   263103.0000    13   263221.0000   263034.0000  1231238    0.07%
 531767 347526   263103.0000    13   263221.0000   263034.0000  1231239    0.07%
 531768 347527   263103.0000    13   263221.0000   263034.0000  1231240    0.07%
 531769 347528   263103.0000    13   263221.0000   263034.0000  1231241    0.07%
 531770 347529   263103.0000    14   263221.0000   263034.0000  1231243    0.07%
Elapsed time = 34.21 sec. (35432.21 ticks, tree = 126.02 MB, solutions = 34)
 589199 390526   263034.0000    20   263221.0000   263034.0000  1366073    0.07%
 589200 390527   263034.0000    20   263221.0000   263034.0000  1366074    0.07%
 589201 390528   263034.0000    20   263221.0000   263034.0000  1366075    0.07%
 589202 390529   263034.0000    19   263221.0000   263034.0000  1366076    0.07%
 589203 390530   263034.0000    20   263221.0000   263034.0000  1366081    0.07%
 589204 390531   263034.0000    19   263221.0000   263034.0000  1366085    0.07%
 589205 390532   263034.0000    19   263221.0000   263034.0000  1366087    0.07%
 589206 390533   263034.0000    20   263221.0000   263034.0000  1366090    0.07%
 589207 390534   263034.0000    20   263221.0000   263034.0000  1366091    0.07%
 589208 390535   263034.0000    20   263221.0000   263034.0000  1366095    0.07%
Elapsed time = 37.91 sec. (39247.34 ticks, tree = 139.94 MB, solutions = 34)
*590699 269089      integral     0   263172.0000   263034.0000  1369887    0.05%
*618642 284628      integral     0   263169.0000   263034.0000  1437179    0.05%
 640431 299737   263034.0000    19   263169.0000   263034.0000  1489706    0.05%
 640432 299738   263034.0000    18   263169.0000   263034.0000  1489709    0.05%
 640433 299739   263034.0000    19   263169.0000   263034.0000  1489713    0.05%
 640434 299740   263034.0000    19   263169.0000   263034.0000  1489717    0.05%
 640435 299741   263034.0000    19   263169.0000   263034.0000  1489722    0.05%
 640436 299742   263034.0000    19   263169.0000   263034.0000  1489723    0.05%
 640437 299743   263034.0000    19   263169.0000   263034.0000  1489726    0.05%
 640438 299742        cutoff         263169.0000   263034.0000  1489729    0.05%
 640439 299741        cutoff         263169.0000   263034.0000  1489732    0.05%
 640440 299742   263034.0000    17   263169.0000   263034.0000  1489744    0.05%
Elapsed time = 41.72 sec. (43062.60 ticks, tree = 112.29 MB, solutions = 36)
*670043+285242                       263161.0000   263034.0000             0.05%
 690567 294291   263107.5556    16   263161.0000   263034.0000  1622674    0.05%
 690568 294292   263107.5556    15   263161.0000   263034.0000  1622678    0.05%
 690569 294293   263107.5556    15   263161.0000   263034.0000  1622680    0.05%
 690570 294294   263107.5556    15   263161.0000   263034.0000  1622683    0.05%
 690571 294295   263107.5556    16   263161.0000   263034.0000  1622687    0.05%
 690572 294296   263107.5556    16   263161.0000   263034.0000  1622688    0.05%
 690573 294297   263107.5556    16   263161.0000   263034.0000  1622689    0.05%
 690574 294298   263107.5556    16   263161.0000   263034.0000  1622690    0.05%
 690575 294299   263107.5556    16   263161.0000   263034.0000  1622691    0.05%
 690576 294300   263107.5556    15   263161.0000   263034.0000  1622694    0.05%
Elapsed time = 45.60 sec. (46877.82 ticks, tree = 110.46 MB, solutions = 37)
 739783 323179   263034.0000    21   263161.0000   263034.0000  1738563    0.05%
 739784 323180   263130.5000    19   263161.0000   263034.0000  1738567    0.05%
 739785 323181   263133.5556    16   263161.0000   263034.0000  1738569    0.05%
 739786 323182   263133.5556    15   263161.0000   263034.0000  1738571    0.05%
 739787 323183   263133.5556    15   263161.0000   263034.0000  1738572    0.05%
 739788 323184   263133.5556    16   263161.0000   263034.0000  1738573    0.05%
 739789 323185   263133.5556    16   263161.0000   263034.0000  1738574    0.05%
 739790 323186   263133.5556    16   263161.0000   263034.0000  1738575    0.05%
 739791 323187   263133.5556    18   263161.0000   263034.0000  1738579    0.05%
 739792 323188   263133.5556    18   263161.0000   263034.0000  1738585    0.05%
Elapsed time = 49.46 sec. (50694.46 ticks, tree = 119.87 MB, solutions = 37)
 785334 348229   263055.0000    17   263161.0000   263034.0000  1856341    0.05%
 785335 348230   263103.1250    14   263161.0000   263034.0000  1856344    0.05%
 785336 348231   263103.1250    14   263161.0000   263034.0000  1856345    0.05%
 785337 348232   263103.1250    14   263161.0000   263034.0000  1856346    0.05%
 785338 348233   263103.1250    14   263161.0000   263034.0000  1856348    0.05%
 785339 348234   263103.1250    14   263161.0000   263034.0000  1856349    0.05%
 785340 348235   263103.1250    14   263161.0000   263034.0000  1856350    0.05%
 785341 348236   263103.1250    14   263161.0000   263034.0000  1856352    0.05%
 785342 348237   263103.1250    14   263161.0000   263034.0000  1856353    0.05%
 785343 348238   263103.1250    16   263161.0000   263034.0000  1856357    0.05%
Elapsed time = 53.35 sec. (54509.65 ticks, tree = 127.94 MB, solutions = 37)
 831354 374092   263034.0000    21   263161.0000   263034.0000  1974566    0.05%
 831355 374093   263034.0000    21   263161.0000   263034.0000  1974567    0.05%
 831356 374094   263034.0000    21   263161.0000   263034.0000  1974569    0.05%
 831357 374095   263099.2000    20   263161.0000   263034.0000  1974573    0.05%
 831358 374096   263104.1111    18   263161.0000   263034.0000  1974574    0.05%
 831359 374097   263104.1111    18   263161.0000   263034.0000  1974576    0.05%
 831360 374098   263104.1111    18   263161.0000   263034.0000  1974577    0.05%
 831361 374097    infeasible         263161.0000   263034.0000  1974577    0.05%
 831362 374096        cutoff         263161.0000   263034.0000  1974579    0.05%
 831363 374095        cutoff         263161.0000   263034.0000  1974584    0.05%
Elapsed time = 57.21 sec. (58324.78 ticks, tree = 136.12 MB, solutions = 37)
 878658 395369   263034.0000    17   263161.0000   263034.0000  2102784    0.05%
 878659 395370   263034.0000    17   263161.0000   263034.0000  2102785    0.05%
 878660 395371   263034.0000    17   263161.0000   263034.0000  2102786    0.05%
 878661 395372   263034.0000    17   263161.0000   263034.0000  2102788    0.05%
 878662 395373   263034.0000    17   263161.0000   263034.0000  2102791    0.05%
 878663 395374   263034.0000    17   263161.0000   263034.0000  2102793    0.05%
 878664 395375   263034.0000    17   263161.0000   263034.0000  2102794    0.05%
 878665 395376   263055.0000    13   263161.0000   263034.0000  2102797    0.05%
 878666 395375        cutoff         263161.0000   263034.0000  2102801    0.05%
 878667 395374        cutoff         263161.0000   263034.0000  2102808    0.05%
Elapsed time = 61.02 sec. (62139.93 ticks, tree = 142.90 MB, solutions = 37)
 922680 420755   263034.0000    18   263161.0000   263034.0000  2223327    0.05%
 922681 420756   263034.0000    18   263161.0000   263034.0000  2223329    0.05%
 922682 420755        cutoff         263161.0000   263034.0000  2223337    0.05%
 922683 420756   263034.0000    20   263161.0000   263034.0000  2223345    0.05%
 922684 420755    infeasible         263161.0000   263034.0000  2223345    0.05%
 922685 420756   263152.8571    14   263161.0000   263034.0000  2223354    0.05%
 922686 420755        cutoff         263161.0000   263034.0000  2223358    0.05%
 922687 420754    infeasible         263161.0000   263034.0000  2223358    0.05%
 922688 420753    infeasible         263161.0000   263034.0000  2223358    0.05%
 922689 420752    infeasible         263161.0000   263034.0000  2223358    0.05%
Elapsed time = 64.80 sec. (65955.22 ticks, tree = 151.00 MB, solutions = 37)
 967385 444724   263157.0000    11   263161.0000   263034.0000  2349074    0.05%
 967386 444723    infeasible         263161.0000   263034.0000  2349074    0.05%
 967387 444722    infeasible         263161.0000   263034.0000  2349074    0.05%
 967388 444723   263107.7000    18   263161.0000   263034.0000  2349082    0.05%
 967389 444724   263107.7000    18   263161.0000   263034.0000  2349083    0.05%
 967390 444725   263113.5556    16   263161.0000   263034.0000  2349084    0.05%
 967391 444726   263113.5556    16   263161.0000   263034.0000  2349085    0.05%
 967392 444727   263113.5556    16   263161.0000   263034.0000  2349086    0.05%
 967393 444728   263113.5556    16   263161.0000   263034.0000  2349088    0.05%
 967394 444729   263113.5556    16   263161.0000   263034.0000  2349089    0.05%
Elapsed time = 68.60 sec. (69770.52 ticks, tree = 158.65 MB, solutions = 37)
 1014743 470090   263068.4000    18   263161.0000   263034.0000  2488493    0.05%
 1014744 470091   263068.4000    18   263161.0000   263034.0000  2488494    0.05%
 1014745 470092   263069.8889    16   263161.0000   263034.0000  2488495    0.05%
 1014746 470093   263069.8889    15   263161.0000   263034.0000  2488496    0.05%
 1014747 470094   263069.8889    16   263161.0000   263034.0000  2488497    0.05%
 1014748 470095   263069.8889    16   263161.0000   263034.0000  2488498    0.05%
 1014749 470096   263069.8889    15   263161.0000   263034.0000  2488499    0.05%
 1014750 470097   263069.8889    16   263161.0000   263034.0000  2488500    0.05%
 1014751 470098   263069.8889    15   263161.0000   263034.0000  2488501    0.05%
 1014752 470099   263070.6250    14   263161.0000   263034.0000  2488502    0.05%
Elapsed time = 72.42 sec. (73586.49 ticks, tree = 169.96 MB, solutions = 37)
 1059085 492828   263086.4444    16   263161.0000   263034.0000  2613841    0.05%
 1059086 492829   263086.4444    16   263161.0000   263034.0000  2613842    0.05%
 1059087 492830   263086.4444    18   263161.0000   263034.0000  2613844    0.05%
 1059088 492829        cutoff         263161.0000   263034.0000  2613846    0.05%
 1059089 492828        cutoff         263161.0000   263034.0000  2613850    0.05%
 1059090 492829   263034.0000    18   263161.0000   263034.0000  2613857    0.05%
 1059091 492830   263034.0000    19   263161.0000   263034.0000  2613865    0.05%
 1059092 492831   263034.0000    19   263161.0000   263034.0000  2613866    0.05%
 1059093 492832   263034.0000    19   263161.0000   263034.0000  2613867    0.05%
 1059094 492833   263034.0000    19   263161.0000   263034.0000  2613868    0.05%
Elapsed time = 76.25 sec. (77402.19 ticks, tree = 177.09 MB, solutions = 37)
 1102437 511561   263132.4444    17   263161.0000   263034.0000  2743152    0.05%
 1102438 511562   263132.4444    17   263161.0000   263034.0000  2743153    0.05%
 1102439 511563   263132.4444    17   263161.0000   263034.0000  2743154    0.05%
 1102440 511563   263132.4444    17   263161.0000   263034.0000  2743155    0.05%
 1102441 511564   263132.4444    16   263161.0000   263034.0000  2743157    0.05%
 1102442 511564   263132.4444    16   263161.0000   263034.0000  2743158    0.05%
 1102443 511564   263159.5000    15   263161.0000   263034.0000  2743162    0.05%
 1102444 511563        cutoff         263161.0000   263034.0000  2743164    0.05%
 1102445 511564   263146.7500    15   263161.0000   263034.0000  2743170    0.05%
 1102446 511565   263146.7500    15   263161.0000   263034.0000  2743171    0.05%
Elapsed time = 80.04 sec. (81217.39 ticks, tree = 183.00 MB, solutions = 37)
 1149612 528771   263034.0000    20   263161.0000   263034.0000  2892847    0.05%
 1149613 528770        cutoff         263161.0000   263034.0000  2892852    0.05%
 1149614 528769    infeasible         263161.0000   263034.0000  2892852    0.05%
 1149615 528768        cutoff         263161.0000   263034.0000  2892865    0.05%
 1149616 528769   263096.0000    16   263161.0000   263034.0000  2892873    0.05%
 1149617 528770   263100.5556    15   263161.0000   263034.0000  2892876    0.05%
 1149618 528771   263100.5556    15   263161.0000   263034.0000  2892877    0.05%
 1149619 528772   263100.5556    17   263161.0000   263034.0000  2892884    0.05%
 1149620 528773   263100.5556    17   263161.0000   263034.0000  2892885    0.05%
 1149621 528774   263100.5556    17   263161.0000   263034.0000  2892888    0.05%
Elapsed time = 83.85 sec. (85032.68 ticks, tree = 188.56 MB, solutions = 37)
 1196629 549821   263034.0000    18   263161.0000   263034.0000  3032280    0.05%
 1196630 549822   263034.0000    18   263161.0000   263034.0000  3032283    0.05%
 1196631 549823   263034.0000    18   263161.0000   263034.0000  3032284    0.05%
 1196632 549824   263034.0000    18   263161.0000   263034.0000  3032286    0.05%
 1196633 549825   263034.0000    18   263161.0000   263034.0000  3032287    0.05%
 1196634 549826   263034.0000    18   263161.0000   263034.0000  3032288    0.05%
 1196635 549827   263034.0000    18   263161.0000   263034.0000  3032290    0.05%
 1196636 549828   263034.0000    18   263161.0000   263034.0000  3032297    0.05%
 1196637 549829   263082.9000    17   263161.0000   263034.0000  3032301    0.05%
 1196638 549828    infeasible         263161.0000   263034.0000  3032301    0.05%
Elapsed time = 87.63 sec. (88847.82 ticks, tree = 195.26 MB, solutions = 37)
 1233343 566703   263133.5000    15   263161.0000   263034.0000  3146513    0.05%
 1233344 566704   263133.5000    15   263161.0000   263034.0000  3146514    0.05%
 1233345 566705   263133.5000    15   263161.0000   263034.0000  3146517    0.05%
 1233346 566706   263133.5000    15   263161.0000   263034.0000  3146518    0.05%
 1233347 566705        cutoff         263161.0000   263034.0000  3146522    0.05%
 1233348 566706   263133.5000    15   263161.0000   263034.0000  3146524    0.05%
 1233349 566705        cutoff         263161.0000   263034.0000  3146536    0.05%
 1233350 566704        cutoff         263161.0000   263034.0000  3146538    0.05%
 1233351 566703    infeasible         263161.0000   263034.0000  3146538    0.05%
 1233352 566704   263034.0000    18   263161.0000   263034.0000  3146542    0.05%
Elapsed time = 91.43 sec. (92746.31 ticks, tree = 204.57 MB, solutions = 37)
 1278239 584879   263061.0000    17   263161.0000   263061.0000  3286721    0.04%
 1278240 584879   263061.0000    17   263161.0000   263061.0000  3286722    0.04%
 1278241 584880   263061.0000    26   263161.0000   263061.0000  3286744    0.04%
 1278242 584880   263061.0000    17   263161.0000   263061.0000  3286753    0.04%
 1278243 584881   263061.0000    15   263161.0000   263061.0000  3286765    0.04%
 1278244 584882   263061.0000    16   263161.0000   263061.0000  3286776    0.04%
 1278245 584882   263061.0000    14   263161.0000   263061.0000  3286780    0.04%
 1278246 584882   263061.0000    15   263161.0000   263061.0000  3286794    0.04%
 1278247 584883   263061.0000    14   263161.0000   263061.0000  3286795    0.04%
 1278248 584883   263061.0000    17   263161.0000   263061.0000  3286810    0.04%
Elapsed time = 95.40 sec. (96719.57 ticks, tree = 210.43 MB, solutions = 37)
 1294760 77546   263073.6079    17   263161.0000   263061.0000  3350761    0.04%
 1294761 77547   263073.6079    17   263161.0000   263061.0000  3350762    0.04%
 1294762 77538    infeasible         263161.0000   263061.0000  3350762    0.04%
 1294763 77529        cutoff         263161.0000   263061.0000  3350765    0.04%
 1294764 77520    infeasible         263161.0000   263061.0000  3350765    0.04%
 1294765 77511    infeasible         263161.0000   263061.0000  3350765    0.04%
 1294766 77502    infeasible         263161.0000   263061.0000  3350765    0.04%
 1294767 77493    infeasible         263161.0000   263061.0000  3350765    0.04%
 1294768 77484        cutoff         263161.0000   263061.0000  3350771    0.04%
 1294769 77485   263061.0000    16   263161.0000   263061.0000  3350788    0.04%
Elapsed time = 99.06 sec. (100535.55 ticks, tree = 27.64 MB, solutions = 37)

Cover cuts applied:  6
Mixed integer rounding cuts applied:  2
Zero-half cuts applied:  2

Root node processing (before b&c):
  Real time             =    0.09 sec. (95.55 ticks)
Sequential b&c:
  Real time             =   99.91 sec. (101386.42 ticks)
                          ------------
Total (root+branch&cut) =  100.00 sec. (101481.97 ticks)

Solution pool: 37 solutions saved.

MIP - Time limit exceeded, integer feasible:  Objective =  2.6316100000e+05
Current MIP best bound =  2.6306100000e+05 (gap = 100, 0.04%)
Solution time =  100.00 sec.  Iterations = 3374040  Nodes = 1301424 (70109)
Deterministic time = 101481.99 ticks  (1014.81 ticks/sec)


Incumbent solution written to file '/tmp/tmpf7a2uL.cplex.sol'.
